\ENCODING=ISO-8859-1
\Problem name: 

Maximize
 obj: x1 + x2 + x3 + x4 + x5 + x6 + x7 + x8 + x9 + x10 + x11 + x12 + x13 + x14
      + x15 + x16 + x17 + x18 + x19 + x20 + x21 + x22 + x23 + x24 + x25 + x26
      + x27 + x28 + x29 + x30 + x31 + x32 + x33 + x34 + x35 + x36 + x37 + x38
      + x39 + x40 + x41 + x42 + x43 + x44 + x45 + x46 + x47 + x48 + x49 + x50
      + x51 + x52 + x53 + x54 + x55 + x56 + x57 + x58 + x59 + x60 + x61 + x62
      + x63 + x64 + x65 + x66 + x67 + x68 + x69 + x70 + x71 + x72 + x73 + x74
      + x75 + x76 + x77 + x78 + x79 + x80 + x81 + x82 + x83 + x84 + x85 + x86
      + x87 + x88 + x89 + x90 + x91 + x92 + x93 + x94 + x95 + x96 + x97 + x98
      + x99 + x100 + x101 + x102 + x103 + x104 + x105 + x106 + x107 + x108
      + x109 + x110 + x111 + x112 + x113 + x114 + x115 + x116 + x117 + x118
      + x119 + x120 + x121 + x122 + x123 + x124 + x125 + x126 + x127 + x128
      + x129 + x130 + x131 + x132 + x133 + x134 + x135 + x136 + x137 + x138
      + x139 + x140 + x141 + x142 + x143 + x144 + x145 + x146 + x147 + x148
      + x149 + x150
Subject To
 clq1:   x50 + x67 + x75 <= 1
 clq2:   x18 + x111 + x138 + x144 <= 1
 clq3:   x32 + x38 + x72 <= 1
 clq4:   x33 + x92 + x106 <= 1
 clq5:   x35 + x88 + x123 <= 1
 clq6:   x3 + x53 + x64 <= 1
 clq7:   x1 + x27 + x137 <= 1
 clq8:   x26 + x90 + x117 + x150 <= 1
 clq9:   x26 + x46 + x75 + x98 + x117 <= 1
 clq10:  x26 + x29 + x75 + x77 <= 1
 clq11:  x16 + x56 + x72 + x108 <= 1
 clq12:  x19 + x52 + x71 + x97 <= 1
 clq13:  x10 + x54 + x100 + x102 <= 1
 clq14:  x48 + x49 + x96 <= 1
 clq15:  x83 + x94 + x97 <= 1
 clq16:  x2 + x24 + x31 <= 1
 clq17:  x43 + x59 + x88 + x131 <= 1
 clq18:  x15 + x25 + x53 + x131 <= 1
 clq19:  x2 + x99 + x117 <= 1
 clq20:  x23 + x32 + x72 + x115 <= 1
 clq21:  x95 + x128 + x147 <= 1
 clq22:  x1 + x3 + x5 + x97 + x98 <= 1
 clq23:  x94 + x119 + x128 <= 1
 clq24:  x30 + x45 + x139 + x142 <= 1
 clq25:  x9 + x18 + x44 + x111 <= 1
 clq26:  x71 + x84 + x123 <= 1
 clq27:  x47 + x62 + x128 <= 1
 clq28:  x114 + x116 + x119 + x139 <= 1
 clq29:  x67 + x76 + x127 <= 1
 clq30:  x46 + x89 + x106 + x115 <= 1
 clq31:  x40 + x49 + x89 <= 1
 clq32:  x107 + x115 + x134 + x150 <= 1
 clq33:  x50 + x94 + x97 <= 1
 clq34:  x7 + x77 + x88 + x140 <= 1
 clq35:  x34 + x86 + x109 + x138 <= 1
 clq36:  x23 + x67 + x101 <= 1
 clq37:  x13 + x31 + x52 + x68 <= 1
 clq38:  x2 + x21 + x84 + x138 <= 1
 clq39:  x101 + x118 + x133 <= 1
 clq40:  x38 + x50 + x78 <= 1
 clq41:  x4 + x14 + x26 + x81 <= 1
 clq42:  x11 + x90 + x93 <= 1
 clq43:  x13 + x34 + x89 <= 1
 clq44:  x66 + x113 + x130 <= 1
 clq45:  x16 + x44 + x101 <= 1
 clq46:  x43 + x71 + x89 + x91 <= 1
 clq47:  x18 + x95 + x134 <= 1
 clq48:  x26 + x90 + x148 + x150 <= 1
 clq49:  x30 + x45 + x82 + x85 <= 1
 clq50:  x33 + x41 + x106 + x115 <= 1
 clq51:  x27 + x36 + x78 + x106 <= 1
 clq52:  x13 + x48 + x51 <= 1
 clq53:  x44 + x67 + x90 + x122 <= 1
 clq54:  x66 + x120 + x132 <= 1
 clq55:  x20 + x70 + x102 + x141 <= 1
 clq56:  x83 + x93 + x118 <= 1
 clq57:  x9 + x41 + x44 + x60 <= 1
 clq58:  x1 + x68 + x109 + x112 <= 1
 clq59:  x41 + x44 + x62 <= 1
 clq60:  x1 + x14 + x31 + x98 <= 1
 clq61:  x13 + x59 + x127 <= 1
 clq62:  x96 + x124 + x139 <= 1
 clq63:  x128 + x130 + x143 <= 1
 clq64:  x32 + x54 + x105 <= 1
 clq65:  x39 + x99 + x128 <= 1
 clq66:  x102 + x108 + x119 <= 1
 clq67:  x4 + x36 + x118 <= 1
 clq68:  x13 + x68 + x122 + x124 <= 1
 clq69:  x4 + x37 + x64 + x98 <= 1
 clq70:  x61 + x83 + x88 <= 1
 clq71:  x48 + x58 + x61 + x141 <= 1
 clq72:  x80 + x106 + x136 + x142 <= 1
 clq73:  x25 + x76 + x103 <= 1
 clq74:  x25 + x82 + x131 + x146 <= 1
 clq75:  x16 + x26 + x69 + x116 <= 1
 clq76:  x25 + x84 + x96 + x125 <= 1
 clq77:  x12 + x94 + x127 + x132 <= 1
 clq78:  x20 + x102 + x131 + x141 <= 1
 clq79:  x21 + x41 + x84 + x138 + x147 <= 1
 clq80:  x88 + x111 + x147 <= 1
 clq81:  x109 + x112 + x126 <= 1
 clq82:  x27 + x134 + x137 <= 1
 clq83:  x3 + x84 + x122 <= 1
 clq84:  x22 + x95 + x129 <= 1
 clq85:  x28 + x107 + x133 <= 1
 clq86:  x41 + x53 + x79 + x115 <= 1
 clq87:  x15 + x25 + x55 + x128 <= 1
 clq88:  x4 + x18 + x134 + x144 <= 1
 clq89:  x1 + x74 + x93 <= 1
 clq90:  x14 + x45 + x73 + x130 <= 1
 clq91:  x34 + x80 + x109 <= 1
 clq92:  x55 + x74 + x83 <= 1
 clq93:  x12 + x27 + x36 + x106 <= 1
 clq94:  x8 + x27 + x40 + x69 <= 1
 clq95:  x33 + x128 + x130 <= 1
 clq96:  x7 + x60 + x146 <= 1
 clq97:  x32 + x41 + x107 + x133 <= 1
 clq98:  x39 + x70 + x94 + x127 <= 1
 clq99:  x2 + x77 + x134 <= 1
 clq100: x20 + x37 + x104 + x121 <= 1
 clq101: x71 + x102 + x120 <= 1
 clq102: x19 + x38 + x72 <= 1
 clq103: x8 + x21 + x41 + x145 <= 1
 clq104: x17 + x87 + x93 + x118 <= 1
 clq105: x13 + x32 + x127 <= 1
 clq106: x30 + x104 + x149 + x150 <= 1
 clq107: x33 + x95 + x99 + x136 <= 1
 clq108: x16 + x22 + x26 + x69 <= 1
 clq109: x38 + x57 + x59 + x78 <= 1
 clq110: x68 + x101 + x144 + x150 <= 1
 clq111: x68 + x102 + x143 <= 1
 clq112: x98 + x120 + x142 <= 1
 clq113: x17 + x64 + x129 <= 1
 clq114: x42 + x95 + x136 <= 1
 clq115: x22 + x33 + x95 + x124 <= 1
 clq116: x5 + x10 + x104 + x149 + x150 <= 1
 clq117: x11 + x75 + x77 + x88 <= 1
 clq118: x69 + x82 + x130 <= 1
 clq119: x77 + x108 + x113 + x141 <= 1
 clq120: x15 + x90 + x105 + x123 <= 1
 clq121: x101 + x134 + x137 + x150 <= 1
 clq122: x53 + x77 + x83 + x108 <= 1
 clq123: x9 + x40 + x44 + x59 <= 1
 clq124: x81 + x86 + x105 + x122 <= 1
 clq125: x10 + x62 + x149 <= 1
 clq126: x44 + x87 + x103 + x118 <= 1
 clq127: x23 + x55 + x110 <= 1
 clq128: x25 + x49 + x50 + x95 <= 1
 clq129: x22 + x24 + x88 + x111 <= 1
 clq130: x78 + x96 + x114 <= 1
 clq131: x18 + x99 + x116 + x126 <= 1
 clq132: x4 + x18 + x49 + x57 <= 1
 clq133: x14 + x34 + x89 + x130 <= 1
 clq134: x53 + x61 + x66 + x94 <= 1
 clq135: x4 + x79 + x113 <= 1
 clq136: x18 + x20 + x57 <= 1
 clq137: x1 + x46 + x99 <= 1
 clq138: x18 + x111 + x134 + x144 <= 1
 clq139: x37 + x92 + x111 + x134 <= 1
 clq140: x19 + x21 + x92 + x104 <= 1
 clq141: x1 + x6 + x21 + x82 <= 1
 clq142: x133 + x137 + x138 <= 1
 clq143: x1 + x33 + x82 + x103 <= 1
 clq144: x29 + x75 + x143 <= 1
 clq145: x61 + x137 + x150 <= 1
 clq146: x64 + x74 + x96 <= 1
 clq147: x41 + x58 + x111 + x138 <= 1
 clq148: x15 + x42 + x72 <= 1
 clq149: x29 + x100 + x126 <= 1
 clq150: x24 + x104 + x119 <= 1
 clq151: x6 + x56 + x149 <= 1
 clq152: x30 + x82 + x83 + x122 <= 1
 clq153: x27 + x78 + x133 <= 1
 clq154: x12 + x52 + x86 <= 1
 clq155: x48 + x55 + x102 <= 1
 clq156: x4 + x18 + x138 + x144 <= 1
 clq157: x68 + x148 + x150 <= 1
 clq158: x14 + x59 + x67 + x116 <= 1
 clq159: x20 + x62 + x70 + x125 <= 1
 clq160: x74 + x100 + x104 + x127 <= 1
 clq161: x5 + x19 + x25 + x146 <= 1
 clq162: x20 + x88 + x148 <= 1
 clq163: x38 + x64 + x114 <= 1
 clq164: x36 + x42 + x72 <= 1
 clq165: x6 + x127 + x136 <= 1
 clq166: x30 + x67 + x78 + x122 <= 1
 clq167: x1 + x33 + x124 + x130 <= 1
 clq168: x10 + x27 + x100 + x103 + x104 <= 1
 clq169: x54 + x91 + x130 <= 1
 clq170: x2 + x58 + x84 + x123 <= 1
 clq171: x15 + x26 + x130 <= 1
 clq172: x70 + x76 + x127 <= 1
 clq173: x23 + x50 + x67 + x78 <= 1
 clq174: x17 + x64 + x98 <= 1
 clq175: x52 + x64 + x133 <= 1
 clq176: x29 + x64 + x147 <= 1
 clq177: x27 + x51 + x141 <= 1
 clq178: x55 + x70 + x102 + x117 <= 1
 clq179: x29 + x95 + x136 <= 1
 clq180: x8 + x30 + x65 <= 1
 clq181: x21 + x41 + x138 + x144 <= 1
 clq182: x19 + x129 + x142 <= 1
 clq183: x33 + x41 + x126 <= 1
 clq184: x33 + x38 + x90 <= 1
 clq185: x72 + x92 + x134 <= 1
 clq186: x6 + x23 + x32 + x133 <= 1
 clq187: x5 + x20 + x37 + x104 + x119 <= 1
 clq188: x56 + x103 + x115 + x149 <= 1
 clq189: x70 + x111 + x140 + x141 <= 1
 clq190: x43 + x56 + x91 + x95 <= 1
 clq191: x8 + x23 + x63 <= 1
 clq192: x74 + x92 + x94 + x134 <= 1
 clq193: x24 + x80 + x119 <= 1
 clq194: x17 + x45 + x90 <= 1
 clq195: x26 + x40 + x75 <= 1
 clq196: x48 + x51 + x102 + x103 <= 1
 clq197: x48 + x58 + x85 <= 1
 clq198: x16 + x26 + x99 + x146 <= 1
 clq199: x6 + x8 + x41 + x121 <= 1
 clq200: x21 + x48 + x53 <= 1
 clq201: x56 + x104 + x114 + x121 <= 1
 clq202: x2 + x15 + x123 <= 1
 clq203: x20 + x96 + x113 <= 1
 clq204: x12 + x48 + x57 <= 1
 clq205: x23 + x28 + x48 <= 1
 clq206: x45 + x95 + x112 <= 1
 clq207: x12 + x22 + x48 + x148 <= 1
 clq208: x7 + x29 + x41 + x85 <= 1
 clq209: x64 + x130 + x143 <= 1
 clq210: x34 + x80 + x150 <= 1
 clq211: x21 + x106 + x142 <= 1
 clq212: x3 + x97 + x115 + x141 <= 1
 clq213: x57 + x60 + x84 + x119 <= 1
 clq214: x39 + x59 + x86 + x127 <= 1
 clq215: x11 + x99 + x136 <= 1
 clq216: x59 + x88 + x131 + x147 <= 1
 clq217: x21 + x29 + x143 <= 1
 clq218: x40 + x112 + x132 <= 1
 clq219: x62 + x65 + x91 <= 1
 clq220: x33 + x77 + x115 + x135 + x150 <= 1
 clq221: x16 + x17 + x116 <= 1
 clq222: x46 + x77 + x115 + x150 <= 1
 clq223: x5 + x20 + x39 + x106 + x125 <= 1
 clq224: x4 + x105 + x118 + x143 <= 1
 clq225: x38 + x50 + x97 + x109 <= 1
 clq226: x91 + x122 + x140 <= 1
 clq227: x47 + x114 + x117 <= 1
 clq228: x24 + x34 + x80 <= 1
 clq229: x4 + x53 + x64 + x129 <= 1
 clq230: x36 + x54 + x55 + x102 <= 1
 clq231: x24 + x35 + x45 + x88 <= 1
 clq232: x58 + x146 <= 1
 clq233: x3 + x97 + x98 + x105 <= 1
 clq234: x12 + x36 + x99 + x126 <= 1
 clq235: x17 + x71 + x116 <= 1
 clq236: x99 + x127 + x136 <= 1
 clq237: x14 + x62 + x125 <= 1
 clq238: x33 + x103 + x118 <= 1
 clq239: x103 + x115 + x134 + x150 <= 1
 clq240: x86 + x101 + x110 + x118 <= 1
 clq241: x5 + x72 + x84 + x119 <= 1
 clq242: x4 + x68 + x71 + x148 <= 1
 clq243: x37 + x76 + x79 + x146 <= 1
 clq244: x56 + x58 + x84 + x107 <= 1
 clq245: x29 + x41 + x62 + x97 <= 1
 clq246: x24 + x53 + x66 + x120 <= 1
 clq247: x14 + x85 + x127 <= 1
 clq248: x101 + x117 + x150 <= 1
 clq249: x10 + x27 + x103 + x132 <= 1
 clq250: x61 + x105 + x118 + x143 <= 1
 clq251: x61 + x87 + x105 + x118 <= 1
 clq252: x18 + x86 + x127 <= 1
 clq253: x13 + x31 + x47 + x68 <= 1
 clq254: x66 + x74 + x94 <= 1
 clq255: x9 + x52 + x68 + x100 <= 1
 clq256: x62 + x74 + x142 <= 1
 clq257: x35 + x45 + x73 + x142 <= 1
 clq258: x43 + x44 + x88 + x111 <= 1
 clq259: x24 + x79 + x148 <= 1
 clq260: x27 + x54 + x94 + x132 <= 1
 clq261: x11 + x26 + x77 + x99 <= 1
 clq262: x27 + x36 + x54 + x69 <= 1
 clq263: x80 + x127 + x136 <= 1
 clq264: x64 + x112 + x132 <= 1
 clq265: x38 + x109 + x112 <= 1
 clq266: x5 + x15 + x39 + x70 <= 1
 clq267: x43 + x54 + x55 + x75 <= 1
 clq268: x29 + x31 + x61 + x113 <= 1
 clq269: x43 + x89 + x115 + x136 <= 1
 clq270: x34 + x38 + x100 <= 1
 clq271: x9 + x22 + x100 + x111 <= 1
 clq272: x21 + x36 + x53 + x126 <= 1
 clq273: x48 + x53 + x56 + x93 <= 1
 clq274: x49 + x86 + x105 + x122 + x135 <= 1
 clq275: x25 + x57 + x78 <= 1
 clq276: x14 + x31 + x47 + x73 <= 1
 clq277: x10 + x25 + x54 <= 1
 clq278: x27 + x86 + x109 <= 1
 clq279: x15 + x43 + x56 + x105 <= 1
 clq280: x53 + x64 + x123 <= 1
 clq281: x28 + x48 + x57 <= 1
 clq282: x79 + x101 + x129 <= 1
 clq283: x94 + x96 + x127 + x132 <= 1
 clq284: x61 + x79 + x113 + x137 <= 1
 clq285: x26 + x27 + x141 <= 1
 clq286: x44 + x76 + x103 <= 1
 clq287: x37 + x63 + x81 <= 1
 clq288: x32 + x39 + x64 + x143 <= 1
 clq289: x7 + x48 + x62 <= 1
 clq290: x50 + x78 + x143 <= 1
 clq291: x32 + x64 + x133 + x137 <= 1
 clq292: x9 + x59 + x73 <= 1
 clq293: x23 + x37 + x98 + x136 <= 1
 clq294: x64 + x91 + x133 + x137 <= 1
 clq295: x17 + x35 + x50 + x75 <= 1
 clq296: x43 + x92 + x111 + x124 <= 1
 clq297: x115 + x127 + x136 + x141 <= 1
 clq298: x65 + x70 + x124 <= 1
 clq299: x44 + x62 + x118 <= 1
 clq300: x7 + x41 + x60 + x85 <= 1
 clq301: x98 + x131 + x132 <= 1
 clq302: x84 + x118 + x124 <= 1
 clq303: x12 + x73 + x74 + x127 <= 1
 clq304: x2 + x123 + x134 <= 1
 clq305: x54 + x91 + x94 <= 1
 clq306: x39 + x71 + x128 <= 1
 clq307: x9 + x17 + x142 <= 1
 clq308: x72 + x73 + x147 <= 1
 clq309: x5 + x25 + x55 + x84 <= 1
 clq310: x19 + x75 + x142 <= 1
 clq311: x23 + x32 + x76 + x146 <= 1
 clq312: x32 + x137 + x146 <= 1
 clq313: x42 + x131 + x136 + x141 <= 1
 clq314: x20 + x62 + x88 + x131 <= 1
 clq315: x9 + x29 + x59 <= 1
 clq316: x42 + x49 + x64 + x69 <= 1
 clq317: x2 + x58 + x61 + x87 <= 1
 clq318: x9 + x47 + x73 <= 1
 clq319: x16 + x26 + x29 + x146 <= 1
 clq320: x72 + x84 + x114 + x119 + x122 <= 1
 clq321: x15 + x55 + x83 + x128 <= 1
 clq322: x43 + x54 + x75 + x88 + x114 <= 1
 clq323: x21 + x29 + x95 + x147 <= 1
 clq324: x27 + x40 + x69 + x104 <= 1
 clq325: x19 + x33 + x92 <= 1
 clq326: x43 + x105 + x129 <= 1
 clq327: x7 + x31 + x106 <= 1
 clq328: x18 + x86 + x102 <= 1
 clq329: x6 + x70 + x127 <= 1
 clq330: x25 + x82 + x84 + x107 + x122 <= 1
 clq331: x67 + x116 + x141 <= 1
 clq332: x65 + x84 + x96 + x114 <= 1
 clq333: x12 + x74 + x76 + x127 <= 1
 clq334: x52 + x71 + x97 + x117 <= 1
 clq335: x16 + x66 + x74 <= 1
 clq336: x22 + x46 + x106 + x114 + x115 <= 1
 clq337: x71 + x89 + x91 + x130 <= 1
 clq338: x79 + x113 + x126 <= 1
 clq339: x74 + x87 + x130 <= 1
 clq340: x28 + x90 + x108 <= 1
 clq341: x106 + x136 + x139 + x142 <= 1
 clq342: x57 + x59 + x147 <= 1
 clq343: x96 + x139 + x142 <= 1
 clq344: x24 + x99 + x111 + x120 <= 1
 clq345: x14 + x34 + x100 <= 1
 clq346: x13 + x16 + x108 + x116 <= 1
 clq347: x47 + x56 + x93 <= 1
 clq348: x64 + x91 + x125 <= 1
 clq349: x34 + x54 + x145 <= 1
 clq350: x23 + x50 + x94 <= 1
 clq351: x7 + x29 + x64 + x69 <= 1
 clq352: x2 + x33 + x70 + x77 + x125 <= 1
 clq353: x2 + x70 + x77 + x139 <= 1
 clq354: x34 + x83 + x97 + x109 <= 1
 clq355: x36 + x52 + x90 <= 1
 clq356: x61 + x87 + x137 <= 1
 clq357: x103 + x122 + x147 <= 1
 clq358: x44 + x101 + x134 + x135 <= 1
 clq359: x85 + x112 + x127 <= 1
 clq360: x18 + x68 + x102 + x144 <= 1
 clq361: x14 + x34 + x109 + x134 <= 1
 clq362: x61 + x76 + x103 <= 1
 clq363: x51 + x103 + x115 + x149 <= 1
 clq364: x16 + x26 + x99 + x122 <= 1
 clq365: x36 + x99 + x111 + x136 <= 1
 clq366: x69 + x81 + x139 + x142 <= 1
 clq367: x10 + x45 + x56 + x100 + x103 <= 1
 clq368: x25 + x41 + x84 + x138 <= 1
 clq369: x72 + x115 + x134 + x135 <= 1
 clq370: x10 + x106 + x121 + x140 <= 1
 clq371: x26 + x81 + x86 + x118 <= 1
 clq372: x53 + x77 + x115 + x135 <= 1
 clq373: x15 + x42 + x131 <= 1
 clq374: x40 + x101 + x144 <= 1
 clq375: x2 + x69 + x139 + x145 <= 1
 clq376: x21 + x43 + x92 <= 1
 clq377: x59 + x91 + x116 <= 1
 clq378: x46 + x106 + x123 <= 1
 clq379: x3 + x28 + x95 <= 1
 clq380: x20 + x47 + x68 + x132 <= 1
 clq381: x17 + x20 + x118 <= 1
 clq382: x17 + x93 + x131 <= 1
 clq383: x24 + x71 + x84 + x116 <= 1
 clq384: x8 + x35 + x54 + x75 <= 1
 clq385: x14 + x113 + x130 <= 1
 clq386: x96 + x108 + x116 <= 1
 clq387: x39 + x87 + x93 <= 1
 clq388: x22 + x39 + x64 + x114 <= 1
 clq389: x18 + x35 + x54 + x102 <= 1
 clq390: x7 + x41 + x106 + x138 <= 1
 clq391: x18 + x35 + x49 + x50 <= 1
 clq392: x23 + x45 + x100 <= 1
 clq393: x27 + x108 + x141 <= 1
 clq394: x2 + x25 + x54 <= 1
 clq395: x70 + x102 + x125 + x144 <= 1
 clq396: x4 + x68 + x105 + x129 <= 1
 clq397: x81 + x105 + x123 <= 1
 clq398: x101 + x128 + x130 <= 1
 clq399: x17 + x115 + x127 + x136 <= 1
 clq400: x72 + x88 + x96 + x114 <= 1
 clq401: x2 + x25 + x49 + x122 + x125 <= 1
 clq402: x30 + x54 + x93 <= 1
 clq403: x16 + x56 + x124 + x149 <= 1
 clq404: x68 + x102 + x124 <= 1
 clq405: x40 + x59 + x78 <= 1
 clq406: x13 + x51 + x107 + x122 <= 1
 clq407: x44 + x67 + x101 + x141 <= 1
 clq408: x66 + x77 + x120 + x139 <= 1
 clq409: x12 + x23 + x48 + x138 <= 1
 clq410: x4 + x49 + x64 + x98 <= 1
 clq411: x77 + x83 + x109 + x135 <= 1
 clq412: x20 + x68 + x102 + x106 + x125 <= 1
 clq413: x10 + x92 + x104 + x149 <= 1
 clq414: x32 + x64 + x139 <= 1
 clq415: x22 + x105 + x106 + x129 <= 1
 clq416: x82 + x101 + x130 + x135 <= 1
 clq417: x18 + x67 + x116 <= 1
 clq418: x57 + x84 + x118 + x147 <= 1
 clq419: x86 + x129 + x145 <= 1
 clq420: x29 + x107 + x113 <= 1
 clq421: x13 + x52 + x79 <= 1
 clq422: x10 + x56 + x100 + x103 + x104 <= 1
 clq423: x26 + x50 + x69 + x130 + x148 <= 1
 clq424: x5 + x19 + x66 <= 1
 clq425: x7 + x57 + x114 + x119 <= 1
 clq426: x30 + x52 + x67 <= 1
 clq427: x57 + x66 + x109 <= 1
 clq428: x4 + x64 + x92 + x114 <= 1
 clq429: x3 + x5 + x49 + x95 + x98 <= 1
 clq430: x74 + x83 + x100 + x104 <= 1
 clq431: x43 + x88 + x129 <= 1
 clq432: x19 + x24 + x71 + x116 <= 1
 clq433: x20 + x68 + x109 + x112 <= 1
 clq434: x26 + x43 + x91 + x107 <= 1
 clq435: x85 + x137 + x150 <= 1
 clq436: x70 + x80 + x105 <= 1
 clq437: x31 + x83 + x128 <= 1
 clq438: x72 + x73 + x145 <= 1
 clq439: x6 + x22 + x111 + x140 <= 1
 clq440: x9 + x113 + x130 <= 1
 clq441: x22 + x85 + x88 <= 1
 clq442: x10 + x103 + x134 + x140 <= 1
 clq443: x57 + x59 + x66 + x119 <= 1
 clq444: x73 + x106 + x147 <= 1
 clq445: x3 + x43 + x105 <= 1
 clq446: x7 + x8 + x41 + x145 <= 1
 clq447: x61 + x72 + x119 <= 1
 clq448: x76 + x81 + x86 <= 1
 clq449: x79 + x102 + x147 <= 1
 clq450: x24 + x111 + x134 <= 1
 clq451: x19 + x21 + x38 + x60 + x110 <= 1
 clq452: x9 + x18 + x99 + x111 <= 1
 clq453: x29 + x102 + x147 <= 1
 clq454: x12 + x22 + x73 + x148 <= 1
 clq455: x4 + x16 + x53 + x124 <= 1
 clq456: x46 + x91 + x125 <= 1
 clq457: x63 + x74 + x141 <= 1
 clq458: x11 + x22 + x65 <= 1
 clq459: x25 + x82 + x103 + x122 <= 1
 clq460: x7 + x106 + x138 + x140 <= 1
 clq461: x23 + x87 + x120 <= 1
 clq462: x28 + x102 + x108 + x133 <= 1
 clq463: x31 + x68 + x106 + x129 <= 1
 clq464: x75 + x82 + x101 + x134 <= 1
 clq465: x31 + x34 + x83 <= 1
 clq466: x22 + x64 + x149 <= 1
 clq467: x20 + x62 + x88 + x142 <= 1
 clq468: x50 + x109 + x143 <= 1
 clq469: x36 + x54 + x75 + x88 <= 1
 clq470: x13 + x55 + x79 <= 1
 clq471: x30 + x33 + x82 <= 1
 clq472: x30 + x89 + x149 <= 1
 clq473: x33 + x70 + x77 + x141 <= 1
 clq474: x25 + x65 + x84 + x138 <= 1
 clq475: x1 + x14 + x130 <= 1
 clq476: x53 + x59 + x81 + x117 <= 1
 clq477: x31 + x60 + x119 + x128 <= 1
 clq478: x31 + x83 + x144 <= 1
 clq479: x15 + x72 + x96 <= 1
 clq480: x57 + x71 + x84 + x116 <= 1
 clq481: x27 + x110 + x137 + x145 <= 1
 clq482: x34 + x44 + x76 <= 1
 clq483: x41 + x62 + x91 + x107 <= 1
 clq484: x89 + x124 + x130 + x149 <= 1
 clq485: x3 + x60 + x61 + x65 <= 1
 clq486: x59 + x95 + x98 <= 1
 clq487: x43 + x89 + x131 + x136 <= 1
 clq488: x30 + x39 + x93 + x142 <= 1
 clq489: x67 + x75 + x101 <= 1
 clq490: x56 + x84 + x124 + x137 <= 1
 clq491: x60 + x81 + x119 <= 1
 clq492: x25 + x52 + x53 <= 1
 clq493: x1 + x50 + x130 <= 1
 clq494: x12 + x36 + x76 + x99 <= 1
 clq495: x10 + x11 + x121 <= 1
 clq496: x28 + x59 + x95 <= 1
 clq497: x35 + x47 + x65 <= 1
 clq498: x9 + x41 + x106 + x138 <= 1
 clq499: x66 + x112 + x119 <= 1
 clq500: x29 + x64 + x96 + x113 <= 1
 clq501: x21 + x36 + x78 + x106 <= 1
 clq502: x8 + x40 + x75 + x119 <= 1
 clq503: x6 + x56 + x84 + x137 <= 1
 clq504: x21 + x53 + x66 + x84 + x94 <= 1
 clq505: x51 + x74 + x83 <= 1
 clq506: x68 + x100 + x102 + x125 + x144 <= 1
 clq507: x2 + x25 + x84 + x138 <= 1
 clq508: x6 + x8 + x41 + x75 <= 1
 clq509: x81 + x122 + x132 <= 1
 clq510: x6 + x41 + x126 + x133 <= 1
 clq511: x27 + x85 + x110 + x137 <= 1
 clq512: x12 + x121 + x132 <= 1
 clq513: x19 + x71 + x89 + x91 <= 1
 clq514: x58 + x61 + x87 + x103 <= 1
 clq515: x80 + x137 + x150 <= 1
 clq516: x16 + x26 + x99 + x116 <= 1
 clq517: x90 + x140 + x143 <= 1
 clq518: x21 + x37 + x38 + x145 <= 1
 clq519: x70 + x76 + x140 <= 1
 clq520: x56 + x79 + x137 <= 1
 clq521: x25 + x50 + x55 <= 1
 clq522: x83 + x100 + x135 <= 1
 clq523: x39 + x59 + x66 + x88 + x131 <= 1
 clq524: x43 + x56 + x91 + x107 <= 1
 clq525: x14 + x39 + x106 + x125 <= 1
 clq526: x130 + x133 + x142 <= 1
 clq527: x3 + x80 + x105 <= 1
 clq528: x10 + x47 + x56 <= 1
 clq529: x84 + x137 + x138 + x147 <= 1
 clq530: x18 + x54 + x114 + x116 <= 1
 clq531: x6 + x84 + x118 + x140 <= 1
 clq532: x74 + x92 + x104 <= 1
 clq533: x38 + x42 + x64 <= 1
 clq534: x8 + x27 + x54 + x55 <= 1
 clq535: x3 + x29 + x95 <= 1
 clq536: x6 + x82 + x84 + x135 <= 1
 clq537: x112 + x115 + x127 <= 1
 clq538: x20 + x57 + x70 <= 1
 clq539: x8 + x40 + x59 + x119 <= 1
 clq540: x10 + x31 + x103 + x149 <= 1
 clq541: x12 + x31 + x73 + x103 + x115 <= 1
 clq542: x45 + x51 + x88 <= 1
 clq543: x77 + x99 + x105 + x122 <= 1
 clq544: x7 + x48 + x57 + x114 <= 1
 clq545: x9 + x104 + x150 <= 1
 clq546: x1 + x3 + x93 <= 1
 clq547: x19 + x21 + x66 + x144 <= 1
 clq548: x13 + x30 + x42 + x57 <= 1
 clq549: x66 + x77 + x88 + x140 <= 1
 clq550: x4 + x58 + x138 <= 1
 clq551: x9 + x16 + x44 <= 1
 clq552: x53 + x79 + x81 + x115 <= 1
 clq553: x18 + x144 + x145 <= 1
 clq554: x3 + x49 + x148 <= 1
 clq555: x1 + x57 + x136 <= 1
 clq556: x13 + x30 + x32 + x107 <= 1
 clq557: x22 + x23 + x63 + x71 <= 1
 clq558: x68 + x112 + x127 + x132 <= 1
 clq559: x21 + x86 + x110 + x145 <= 1
 clq560: x40 + x89 + x101 <= 1
 clq561: x13 + x32 + x41 + x107 <= 1
 clq562: x26 + x50 + x69 + x81 + x148 <= 1
 clq563: x83 + x89 + x94 <= 1
 clq564: x21 + x38 + x42 + x110 <= 1
 clq565: x1 + x67 + x137 <= 1
 clq566: x4 + x14 + x55 + x98 <= 1
 clq567: x39 + x64 + x125 <= 1
 clq568: x4 + x10 + x103 + x134 <= 1
 clq569: x48 + x56 + x114 + x144 <= 1
 clq570: x10 + x48 + x56 + x103 <= 1
 clq571: x20 + x30 + x56 + x104 + x121 <= 1
 clq572: x49 + x64 + x69 + x137 <= 1
 clq573: x56 + x105 + x121 <= 1
 clq574: x13 + x15 + x42 <= 1
 clq575: x7 + x74 + x94 + x134 <= 1
 clq576: x30 + x56 + x108 + x121 <= 1
 clq577: x42 + x61 + x113 + x141 <= 1
 clq578: x4 + x10 + x81 + x85 <= 1
 clq579: x5 + x46 + x55 + x98 <= 1
 clq580: x1 + x74 + x76 + x130 <= 1
 clq581: x8 + x65 + x145 <= 1
 clq582: x63 + x67 + x141 <= 1
 clq583: x28 + x70 + x102 <= 1
 clq584: x7 + x85 + x94 + x127 <= 1
 clq585: x30 + x73 + x110 <= 1
 clq586: x27 + x36 + x42 + x69 <= 1
 clq587: x46 + x84 + x89 + x124 <= 1
 clq588: x5 + x20 + x119 + x125 <= 1
 clq589: x1 + x49 + x50 + x111 <= 1
 clq590: x44 + x60 + x146 <= 1
 clq591: x19 + x24 + x97 + x141 <= 1
 clq592: x52 + x53 + x66 + x77 <= 1
 clq593: x5 + x43 + x108 <= 1
 clq594: x9 + x17 + x111 <= 1
 clq595: x16 + x26 + x29 + x69 <= 1
 clq596: x45 + x88 + x114 + x117 <= 1
 clq597: x74 + x87 + x96 + x134 <= 1
 clq598: x2 + x35 + x131 <= 1
 clq599: x2 + x79 + x121 <= 1
 clq600: x79 + x81 + x119 + x129 <= 1
 clq601: x4 + x10 + x103 + x104 <= 1
 clq602: x41 + x58 + x111 + x124 <= 1
 clq603: x83 + x89 + x136 <= 1
 clq604: x17 + x38 + x90 + x140 <= 1
 clq605: x80 + x103 + x140 <= 1
 clq606: x22 + x67 + x106 <= 1
 clq607: x22 + x77 + x113 <= 1
 clq608: x84 + x90 + x119 + x122 <= 1
 clq609: x2 + x19 + x25 <= 1
 clq610: x56 + x91 + x137 <= 1
 clq611: x14 + x106 + x109 + x138 <= 1
 clq612: x16 + x84 + x122 + x124 <= 1
 clq613: x19 + x63 + x113 + x141 <= 1
 clq614: x72 + x73 + x114 + x115 <= 1
 clq615: x63 + x68 + x105 <= 1
 clq616: x56 + x91 + x125 <= 1
 clq617: x68 + x100 + x102 + x108 <= 1
 clq618: x53 + x59 + x81 + x126 <= 1
 clq619: x21 + x84 + x94 + x138 + x147 <= 1
 clq620: x46 + x93 + x144 <= 1
 clq621: x23 + x104 + x124 <= 1
 clq622: x15 + x39 + x100 + x126 <= 1
 clq623: x58 + x90 + x143 <= 1
 clq624: x30 + x42 + x45 + x109 <= 1
 clq625: x3 + x5 + x37 + x97 + x98 <= 1
 clq626: x1 + x82 + x98 <= 1
 clq627: x1 + x6 + x111 + x136 <= 1
 clq628: x66 + x84 + x107 + x113 <= 1
 clq629: x18 + x35 + x102 + x144 <= 1
 clq630: x112 + x119 + x128 <= 1
 clq631: x40 + x51 + x59 <= 1
 clq632: x26 + x81 + x86 + x148 <= 1
 clq633: x69 + x106 + x139 + x142 <= 1
 clq634: x19 + x21 + x36 + x52 <= 1
 clq635: x5 + x18 + x20 <= 1
 clq636: x63 + x68 + x71 + x91 <= 1
 clq637: x56 + x99 + x105 <= 1
 clq638: x50 + x94 + x113 + x126 <= 1
 clq639: x10 + x27 + x54 + x85 <= 1
 clq640: x59 + x66 + x110 <= 1
 clq641: x41 + x58 + x84 + x107 <= 1
 clq642: x42 + x61 + x115 + x141 <= 1
 clq643: x21 + x41 + x53 + x60 + x84 <= 1
 clq644: x40 + x59 + x119 + x125 <= 1
 clq645: x5 + x72 + x88 + x147 <= 1
 clq646: x76 + x99 + x120 <= 1
 clq647: x22 + x111 + x124 <= 1
 clq648: x45 + x81 + x119 + x139 <= 1
 clq649: x51 + x112 + x128 <= 1
 clq650: x80 + x136 + x142 + x150 <= 1
 clq651: x39 + x70 + x111 <= 1
 clq652: x25 + x49 + x63 + x125 <= 1
 clq653: x37 + x79 + x81 + x119 <= 1
 clq654: x7 + x18 + x134 <= 1
 clq655: x16 + x26 + x50 + x69 <= 1
 clq656: x20 + x47 + x56 <= 1
 clq657: x25 + x73 + x103 <= 1
 clq658: x9 + x36 + x42 + x111 <= 1
 clq659: x10 + x126 + x134 <= 1
 clq660: x14 + x17 + x127 <= 1
 clq661: x87 + x118 + x120 <= 1
 clq662: x20 + x37 + x62 <= 1
 clq663: x16 + x98 + x108 + x136 <= 1
 clq664: x47 + x62 + x123 <= 1
 clq665: x6 + x19 + x75 + x113 <= 1
 clq666: x9 + x36 + x42 + x123 <= 1
 clq667: x18 + x57 + x114 + x116 <= 1
 clq668: x6 + x46 + x75 + x114 <= 1
 clq669: x65 + x70 + x80 <= 1
 clq670: x29 + x64 + x135 <= 1
 clq671: x9 + x37 + x100 + x111 <= 1
 clq672: x78 + x96 + x113 <= 1
 clq673: x31 + x52 + x90 + x119 <= 1
 clq674: x63 + x81 + x105 + x118 <= 1
 clq675: x42 + x64 + x129 <= 1
 clq676: x23 + x72 + x104 <= 1
 clq677: x9 + x106 + x139 + x142 <= 1
 clq678: x68 + x71 + x91 + x122 <= 1
 clq679: x52 + x79 + x97 <= 1
 clq680: x20 + x30 + x39 + x142 <= 1
 clq681: x1 + x137 + x147 <= 1
 clq682: x72 + x80 + x95 <= 1
 clq683: x43 + x91 + x107 + x133 <= 1
 clq684: x40 + x51 + x109 + x112 <= 1
 clq685: x7 + x82 + x85 + x127 <= 1
 clq686: x69 + x87 + x126 <= 1
 clq687: x6 + x44 + x90 <= 1
 clq688: x31 + x61 + x103 + x118 <= 1
 clq689: x44 + x85 + x88 <= 1
 clq690: x42 + x44 + x87 + x118 <= 1
 clq691: x13 + x30 + x68 + x108 <= 1
 clq692: x8 + x23 + x124 <= 1
 clq693: x58 + x65 + x80 + x103 <= 1
 clq694: x13 + x94 + x127 <= 1
 clq695: x4 + x128 + x134 <= 1
 clq696: x52 + x95 + x136 <= 1
 clq697: x6 + x84 + x113 + x137 <= 1
 clq698: x51 + x90 + x122 + x140 <= 1
 clq699: x27 + x62 + x88 <= 1
 clq700: x3 + x36 + x53 <= 1
 clq701: x33 + x90 + x150 <= 1
 clq702: x43 + x91 + x95 + x136 <= 1
 clq703: x22 + x64 + x69 <= 1
 clq704: x16 + x44 + x80 <= 1
 clq705: x40 + x61 + x79 + x113 <= 1
 clq706: x17 + x90 + x93 + x140 <= 1
 clq707: x67 + x83 + x122 + x135 <= 1
 clq708: x1 + x82 + x107 <= 1
 clq709: x5 + x72 + x108 + x119 <= 1
 clq710: x39 + x53 + x66 + x94 + x131 <= 1
 clq711: x84 + x137 + x145 <= 1
 clq712: x29 + x59 + x110 + x126 <= 1
 clq713: x48 + x49 + x89 <= 1
 clq714: x43 + x54 + x88 + x114 + x132 <= 1
 clq715: x25 + x49 + x95 + x128 <= 1
 clq716: x37 + x79 + x97 + x137 <= 1
 clq717: x12 + x76 + x86 + x127 <= 1
 clq718: x2 + x54 + x69 + x145 <= 1
 clq719: x20 + x88 + x117 <= 1
 clq720: x23 + x72 + x120 <= 1
 clq721: x80 + x89 + x106 + x136 <= 1
 clq722: x51 + x74 + x102 + x141 <= 1
 clq723: x56 + x104 + x124 + x149 <= 1
 clq724: x15 + x110 + x126 <= 1
 clq725: x37 + x50 + x81 + x119 <= 1
 clq726: x45 + x100 + x111 <= 1
 clq727: x7 + x41 + x85 + x121 <= 1
 clq728: x13 + x32 + x107 + x143 <= 1
 clq729: x51 + x83 + x109 + x118 <= 1
 clq730: x54 + x88 + x148 <= 1
 clq731: x62 + x88 + x129 + x142 <= 1
 clq732: x51 + x74 + x75 + x96 <= 1
 clq733: x7 + x8 + x30 + x69 + x121 <= 1
 clq734: x68 + x109 + x146 <= 1
 clq735: x44 + x104 + x114 <= 1
 clq736: x16 + x25 + x50 + x78 <= 1
 clq737: x2 + x48 + x58 + x138 <= 1
 clq738: x4 + x55 + x79 + x81 + x129 <= 1
 clq739: x44 + x52 + x64 <= 1
 clq740: x31 + x52 + x68 + x71 <= 1
 clq741: x2 + x61 + x145 <= 1
 clq742: x20 + x30 + x68 + x109 <= 1
 clq743: x32 + x39 + x100 + x127 <= 1
 clq744: x44 + x46 + x103 <= 1
 clq745: x3 + x37 + x62 + x65 <= 1
 clq746: x63 + x99 + x117 <= 1
 clq747: x84 + x116 + x138 <= 1
 clq748: x64 + x73 + x147 <= 1
 clq749: x61 + x66 + x109 <= 1
 clq750: x21 + x52 + x53 + x66 <= 1
 clq751: x13 + x52 + x136 <= 1
 clq752: x40 + x58 + x61 + x65 <= 1
 clq753: x22 + x77 + x88 + x140 <= 1
 clq754: x1 + x68 + x91 <= 1
 clq755: x2 + x33 + x77 + x93 <= 1
 clq756: x34 + x38 + x89 + x145 <= 1
 clq757: x66 + x107 + x150 <= 1
 clq758: x29 + x41 + x62 + x126 <= 1
 clq759: x40 + x125 + x144 <= 1
 clq760: x81 + x105 + x122 + x147 <= 1
 clq761: x50 + x51 + x109 <= 1
 clq762: x17 + x86 + x127 <= 1
 clq763: x70 + x83 + x111 + x144 <= 1
 clq764: x38 + x61 + x100 <= 1
 clq765: x63 + x88 + x117 <= 1
 clq766: x64 + x69 + x139 <= 1
 clq767: x11 + x89 + x130 + x136 <= 1
 clq768: x42 + x49 + x69 + x148 <= 1
 clq769: x70 + x77 + x116 + x139 <= 1
 clq770: x44 + x64 + x114 <= 1
 clq771: x6 + x21 + x113 + x126 <= 1
 clq772: x40 + x51 + x140 <= 1
 clq773: x49 + x110 + x137 <= 1
 clq774: x62 + x82 + x107 <= 1
 clq775: x74 + x83 + x100 + x142 <= 1
 clq776: x55 + x83 + x135 <= 1
 clq777: x10 + x27 + x104 + x110 <= 1
 clq778: x121 + x122 + x140 <= 1
 clq779: x1 + x5 + x46 + x49 + x98 <= 1
 clq780: x4 + x37 + x77 + x134 <= 1
 clq781: x35 + x75 + x77 + x88 <= 1
 clq782: x14 + x26 + x81 + x122 <= 1
 clq783: x20 + x77 + x109 <= 1
 clq784: x15 + x26 + x60 + x90 <= 1
 clq785: x13 + x89 + x106 + x136 <= 1
 clq786: x14 + x39 + x53 + x59 + x127 <= 1
 clq787: x10 + x121 + x134 + x140 <= 1
 clq788: x53 + x63 + x81 + x117 <= 1
 clq789: x68 + x71 + x102 <= 1
 clq790: x1 + x21 + x108 + x112 <= 1
 clq791: x20 + x88 + x96 + x132 <= 1
 clq792: x5 + x104 + x119 + x149 <= 1
 clq793: x12 + x16 + x74 <= 1
 clq794: x70 + x112 + x127 <= 1
 clq795: x46 + x55 + x79 + x110 <= 1
 clq796: x98 + x117 + x136 <= 1
 clq797: x3 + x5 + x83 + x97 <= 1
 clq798: x54 + x60 + x85 <= 1
 clq799: x13 + x48 + x57 <= 1
 clq800: x5 + x83 + x88 + x97 <= 1
 clq801: x19 + x21 + x104 + x110 <= 1
 clq802: x4 + x55 + x83 + x128 <= 1
 clq803: x12 + x31 + x73 + x106 + x115 <= 1
 clq804: x8 + x27 + x141 <= 1
 clq805: x24 + x31 + x119 + x135 <= 1
 clq806: x22 + x63 + x71 + x149 <= 1
 clq807: x44 + x52 + x67 + x141 <= 1
 clq808: x1 + x33 + x130 + x136 <= 1
 clq809: x20 + x30 + x57 + x121 <= 1
 clq810: x14 + x89 + x106 <= 1
 clq811: x15 + x17 + x90 <= 1
 clq812: x74 + x75 + x94 + x96 + x134 <= 1
 clq813: x26 + x46 + x79 + x148 <= 1
 clq814: x53 + x56 + x84 + x114 <= 1
 clq815: x18 + x61 + x145 <= 1
 clq816: x8 + x12 + x35 + x65 <= 1
 clq817: x1 + x99 + x116 <= 1
 clq818: x5 + x70 + x150 <= 1
 clq819: x30 + x68 + x122 + x125 <= 1
 clq820: x119 + x128 + x139 <= 1
 clq821: x14 + x21 + x53 <= 1
 clq822: x12 + x22 + x23 + x48 <= 1
 clq823: x19 + x24 + x34 + x97 <= 1
 clq824: x18 + x29 + x102 <= 1
 clq825: x14 + x34 + x78 <= 1
 clq826: x59 + x77 + x116 <= 1
 clq827: x35 + x88 + x131 + x132 <= 1
 clq828: x65 + x66 + x84 <= 1
 clq829: x67 + x80 + x137 <= 1
 clq830: x8 + x119 + x128 <= 1
 clq831: x2 + x33 + x86 <= 1
 clq832: x16 + x80 + x136 <= 1
 clq833: x41 + x58 + x97 + x141 <= 1
 clq834: x5 + x10 + x97 <= 1
 clq835: x26 + x107 + x150 <= 1
 clq836: x46 + x93 + x142 <= 1
 clq837: x37 + x38 + x50 + x97 <= 1
 clq838: x1 + x76 + x91 + x130 <= 1
 clq839: x11 + x52 + x136 <= 1
 clq840: x82 + x101 + x129 <= 1
 clq841: x82 + x107 + x134 <= 1
 clq842: x7 + x57 + x60 + x136 <= 1
 clq843: x22 + x30 + x98 + x142 <= 1
 clq844: x51 + x60 + x65 <= 1
 clq845: x39 + x48 + x53 + x93 <= 1
 clq846: x46 + x124 + x150 <= 1
 clq847: x30 + x42 + x69 + x83 <= 1
 clq848: x96 + x114 + x116 + x132 <= 1
 clq849: x26 + x46 + x75 + x114 + x117 <= 1
 clq850: x16 + x19 + x116 <= 1
 clq851: x20 + x32 + x103 <= 1
 clq852: x61 + x65 + x92 <= 1
 clq853: x31 + x75 + x98 + x117 <= 1
 clq854: x4 + x71 + x128 <= 1
 clq855: x27 + x51 + x133 + x137 <= 1
 clq856: x7 + x106 + x123 + x136 <= 1
 clq857: x10 + x28 + x92 + x133 <= 1
 clq858: x17 + x71 + x93 <= 1
 clq859: x38 + x50 + x95 <= 1
 clq860: x67 + x92 + x106 <= 1
 clq861: x17 + x35 + x131 <= 1
 clq862: x38 + x62 + x97 + x125 <= 1
 clq863: x15 + x22 + x26 + x86 <= 1
 clq864: x2 + x77 + x99 + x122 <= 1
 clq865: x21 + x29 + x113 + x126 <= 1
 clq866: x8 + x69 + x131 + x145 <= 1
 clq867: x72 + x73 + x108 <= 1
 clq868: x4 + x6 + x114 <= 1
 clq869: x109 + x118 + x146 <= 1
 clq870: x7 + x48 + x93 <= 1
 clq871: x43 + x59 + x95 + x124 <= 1
 clq872: x47 + x56 + x58 <= 1
 clq873: x82 + x130 + x146 <= 1
 clq874: x2 + x24 + x86 + x145 <= 1
 clq875: x1 + x5 + x15 + x98 <= 1
 clq876: x14 + x21 + x37 <= 1
 clq877: x17 + x35 + x118 <= 1
 clq878: x12 + x111 + x138 <= 1
 clq879: x25 + x52 + x82 <= 1
 clq880: x29 + x75 + x96 + x113 <= 1
 clq881: x43 + x74 + x127 <= 1
 clq882: x54 + x88 + x97 <= 1
 clq883: x19 + x34 + x92 <= 1
 clq884: x35 + x45 + x49 + x88 + x142 <= 1
 clq885: x16 + x74 + x92 <= 1
 clq886: x30 + x69 + x83 + x104 <= 1
Bounds
 0 <= x1 <= 1
 0 <= x2 <= 1
 0 <= x3 <= 1
 0 <= x4 <= 1
 0 <= x5 <= 1
 0 <= x6 <= 1
 0 <= x7 <= 1
 0 <= x8 <= 1
 0 <= x9 <= 1
 0 <= x10 <= 1
 0 <= x11 <= 1
 0 <= x12 <= 1
 0 <= x13 <= 1
 0 <= x14 <= 1
 0 <= x15 <= 1
 0 <= x16 <= 1
 0 <= x17 <= 1
 0 <= x18 <= 1
 0 <= x19 <= 1
 0 <= x20 <= 1
 0 <= x21 <= 1
 0 <= x22 <= 1
 0 <= x23 <= 1
 0 <= x24 <= 1
 0 <= x25 <= 1
 0 <= x26 <= 1
 0 <= x27 <= 1
 0 <= x28 <= 1
 0 <= x29 <= 1
 0 <= x30 <= 1
 0 <= x31 <= 1
 0 <= x32 <= 1
 0 <= x33 <= 1
 0 <= x34 <= 1
 0 <= x35 <= 1
 0 <= x36 <= 1
 0 <= x37 <= 1
 0 <= x38 <= 1
 0 <= x39 <= 1
 0 <= x40 <= 1
 0 <= x41 <= 1
 0 <= x42 <= 1
 0 <= x43 <= 1
 0 <= x44 <= 1
 0 <= x45 <= 1
 0 <= x46 <= 1
 0 <= x47 <= 1
 0 <= x48 <= 1
 0 <= x49 <= 1
 0 <= x50 <= 1
 0 <= x51 <= 1
 0 <= x52 <= 1
 0 <= x53 <= 1
 0 <= x54 <= 1
 0 <= x55 <= 1
 0 <= x56 <= 1
 0 <= x57 <= 1
 0 <= x58 <= 1
 0 <= x59 <= 1
 0 <= x60 <= 1
 0 <= x61 <= 1
 0 <= x62 <= 1
 0 <= x63 <= 1
 0 <= x64 <= 1
 0 <= x65 <= 1
 0 <= x66 <= 1
 0 <= x67 <= 1
 0 <= x68 <= 1
 0 <= x69 <= 1
 0 <= x70 <= 1
 0 <= x71 <= 1
 0 <= x72 <= 1
 0 <= x73 <= 1
 0 <= x74 <= 1
 0 <= x75 <= 1
 0 <= x76 <= 1
 0 <= x77 <= 1
 0 <= x78 <= 1
 0 <= x79 <= 1
 0 <= x80 <= 1
 0 <= x81 <= 1
 0 <= x82 <= 1
 0 <= x83 <= 1
 0 <= x84 <= 1
 0 <= x85 <= 1
 0 <= x86 <= 1
 0 <= x87 <= 1
 0 <= x88 <= 1
 0 <= x89 <= 1
 0 <= x90 <= 1
 0 <= x91 <= 1
 0 <= x92 <= 1
 0 <= x93 <= 1
 0 <= x94 <= 1
 0 <= x95 <= 1
 0 <= x96 <= 1
 0 <= x97 <= 1
 0 <= x98 <= 1
 0 <= x99 <= 1
 0 <= x100 <= 1
 0 <= x101 <= 1
 0 <= x102 <= 1
 0 <= x103 <= 1
 0 <= x104 <= 1
 0 <= x105 <= 1
 0 <= x106 <= 1
 0 <= x107 <= 1
 0 <= x108 <= 1
 0 <= x109 <= 1
 0 <= x110 <= 1
 0 <= x111 <= 1
 0 <= x112 <= 1
 0 <= x113 <= 1
 0 <= x114 <= 1
 0 <= x115 <= 1
 0 <= x116 <= 1
 0 <= x117 <= 1
 0 <= x118 <= 1
 0 <= x119 <= 1
 0 <= x120 <= 1
 0 <= x121 <= 1
 0 <= x122 <= 1
 0 <= x123 <= 1
 0 <= x124 <= 1
 0 <= x125 <= 1
 0 <= x126 <= 1
 0 <= x127 <= 1
 0 <= x128 <= 1
 0 <= x129 <= 1
 0 <= x130 <= 1
 0 <= x131 <= 1
 0 <= x132 <= 1
 0 <= x133 <= 1
 0 <= x134 <= 1
 0 <= x135 <= 1
 0 <= x136 <= 1
 0 <= x137 <= 1
 0 <= x138 <= 1
 0 <= x139 <= 1
 0 <= x140 <= 1
 0 <= x141 <= 1
 0 <= x142 <= 1
 0 <= x143 <= 1
 0 <= x144 <= 1
 0 <= x145 <= 1
 0 <= x146 <= 1
 0 <= x147 <= 1
 0 <= x148 <= 1
 0 <= x149 <= 1
 0 <= x150 <= 1
Binaries
 x1  x2  x3  x4  x5  x6  x7  x8  x9  x10  x11  x12  x13  x14  x15  x16  x17 
 x18  x19  x20  x21  x22  x23  x24  x25  x26  x27  x28  x29  x30  x31  x32 
 x33  x34  x35  x36  x37  x38  x39  x40  x41  x42  x43  x44  x45  x46  x47 
 x48  x49  x50  x51  x52  x53  x54  x55  x56  x57  x58  x59  x60  x61  x62 
 x63  x64  x65  x66  x67  x68  x69  x70  x71  x72  x73  x74  x75  x76  x77 
 x78  x79  x80  x81  x82  x83  x84  x85  x86  x87  x88  x89  x90  x91  x92 
 x93  x94  x95  x96  x97  x98  x99  x100  x101  x102  x103  x104  x105  x106 
 x107  x108  x109  x110  x111  x112  x113  x114  x115  x116  x117  x118  x119 
 x120  x121  x122  x123  x124  x125  x126  x127  x128  x129  x130  x131  x132 
 x133  x134  x135  x136  x137  x138  x139  x140  x141  x142  x143  x144  x145 
 x146  x147  x148  x149  x150 
End
